results/res_prop_muc/res_Cimatti_mathsat_cores/QF_IDL/jobshop6-2-3-3-4-4-11.smt.smt2.res
unsat
( c10
  c11
  c20
  c21
  c22
  c23
  c48
  c49
  c50
  c51
  c52
  c53
  c56
  c57
  c58
  c59
  c62
  c63
  c64
  c65
  c68
  c69
  c70
  c71
  c8
  c9 )
